p cnf 30 88
-3 2 0
-3 -1 0
-2 1 3 0
4 -3 0
4 -2 0
3 2 -4 0
5 -1 0
5 4 0
1 -4 -5 0
-6 -7 -8 0
6 7 -8 0
-6 7 8 0
6 -7 8 0
-9 5 0
-9 8 0
-5 -8 9 0
-6 -10 -11 0
6 10 -11 0
-6 10 11 0
6 -10 11 0
14 -12 0
14 13 0
12 -13 -14 0
-15 11 0
-15 14 0
-11 -14 15 0
-16 -10 0
-16 -1 0
10 1 16 0
17 -16 0
17 -10 0
16 10 -17 0
-18 -1 0
-18 17 0
1 -17 18 0
7 20 -21 0
-7 -20 -21 0
7 -20 21 0
-7 20 21 0
-19 -21 -22 0
19 21 -22 0
-19 21 22 0
19 -21 22 0
-23 -18 0
-23 22 0
18 -22 23 0
24 1 0
24 21 0
-1 -21 -24 0
25 -23 0
25 24 0
23 -24 -25 0
15 -25 -26 0
-15 25 -26 0
15 25 26 0
-15 -25 26 0
21 -27 -28 0
-21 27 -28 0
21 27 28 0
-21 -27 28 0
-26 28 -29 0
26 -28 -29 0
-26 -28 29 0
26 28 29 0
30 -9 0
30 -29 0
9 29 -30 0
-18 16 -11 0
-1 -28 30 -22 0
-14 -15 -19 0
-27 4 -3 0
-3 19 14 -21 -7 0
15 2 21 0
-10 -8 28 6 -22 0
-18 -3 21 -13 19 0
3 -14 10 4 2 -9 0
24 0
16 -2 -4 -5 0
30 29 15 -10 25 0
-30 -8 14 -1 0
-3 -10 0
-20 22 -9 25 0
23 4 -17 8 0
-11 -10 0
-20 8 25 26 6 21 0
-3 -2 12 -17 -28 -24 0
24 12 28 4 -21 0
30 0
